language Essence 1.3

letting class be function(1 --> 1, 2 --> 1, 3 --> 1, 4 --> 1, 5 --> 2, 6 --> 1, 7 --> 2, 8 --> 2)
letting deck_length be 78
letting deck_width be 78
letting length be function(1 --> 60, 2 --> 11, 3 --> 1, 4 --> 1, 5 --> 1, 6 --> 1, 7 --> 1, 8 --> 1)
letting n_classes be 2
letting n_containers be 8
letting separation be function()
letting width be function(1 --> 69, 2 --> 56, 3 --> 38, 4 --> 3, 5 --> 5, 6 --> 2, 7 --> 1, 8 --> 1)
